NAME : 50-5-2bBIS-i.13450.tour
COMMENT : Length = 13450
COMMENT : Found by LKH-3 [Keld Helsgaun] Tue Dec 17 14:06:59 2024
TYPE : TOUR
DIMENSION : 60
TOUR_SECTION
1
56
2
57
3
58
4
11
9
27
10
7
25
29
22
19
16
15
14
20
13
17
23
28
6
12
21
18
30
8
26
24
59
5
48
39
50
32
44
43
46
31
54
36
52
42
34
38
51
37
41
49
55
33
53
47
40
35
45
60
-1
EOF
